Data path: /scratch/opt/lxu/CFLG/benchmarks/random_B
Instance: r_40_0.1_84.txt
Result path: /scratch/opt/lxu/CFLG/results/random_B
Solver: Gurobi
Time limit: 7200
Formulation: LEFP
Cover: Large
julia --project=. src/main.jl /scratch/opt/lxu/CFLG/benchmarks/random_B r_40_0.1_84.txt /scratch/opt/lxu/CFLG/results/random_B Gurobi 7200 LEFP Large
The latest version of Julia in the `release` channel is 1.11.5+0.x64.linux.gnu. You currently have `1.11.4+0.x64.linux.gnu` installed. Run:

  juliaup update

in your terminal shell to install Julia 1.11.5+0.x64.linux.gnu and update the `release` channel to that version.
/scratch/opt/lxu/CFLG/benchmarks/random_B Gurobi 7200.0 /scratch/opt/lxu/CFLG/results/random_B r_40_0.1_84.txt LEFP Large
/scratch/opt/lxu/CFLG/benchmarks/random_B/r_40_0.1_84.txt

 read graph
data loaded

problem_graph/original graph: node: 40/40 edge: 84/84 dlt: 1.2137849027573164 break_avg_len: 0.6068924513786582 break_max_len: 0.9739273588152333Set parameter TokenServer to value "solice01.zib.de"
Set parameter Threads to value 1
Set parameter OutputFlag to value 1
Gurobi Optimizer version 12.0.1 build v12.0.1rc0 (linux64 - "Debian GNU/Linux 12 (bookworm)")

CPU model: Intel(R) Xeon(R) Gold 5122 CPU @ 3.60GHz, instruction set [SSE2|AVX|AVX2|AVX512]
Thread count: 8 physical cores, 16 logical processors, using up to 1 threads

Non-default parameters:
Threads  1

Optimize a model with 124 rows, 252 columns and 420 nonzeros
Model fingerprint: 0xdfb3ba6c
Coefficient statistics:
  Matrix range     [1e+00, 1e+00]
  Objective range  [1e+00, 1e+00]
  Bounds range     [1e+00, 1e+00]
  RHS range        [1e+00, 1e+00]
Presolve removed 124 rows and 252 columns
Presolve time: 0.00s
Presolve: All rows and columns removed
Iteration    Objective       Primal Inf.    Dual Inf.      Time
       0    3.0000000e+00   0.000000e+00   0.000000e+00      0s

Solved in 0 iterations and 0.00 seconds (0.00 work units)
Optimal objective  3.000000000e+00

User-callback calls 35, time in user-callback 0.01 sec
elapsed CPU time: 1.233507 seconds
Set parameter TokenServer to value "solice01.zib.de"
Set parameter Threads to value 1
Set parameter OutputFlag to value 1
Set parameter MIPGap to value 0.0001
Set parameter MIPGapAbs to value 0.999998
Set parameter TimeLimit to value 7198.766493

 more cuts: false 1.2137849027573164 false
is_attach:falseformulation:LEFP0 84 0

 model loaded

Gurobi Optimizer version 12.0.1 build v12.0.1rc0 (linux64 - "Debian GNU/Linux 12 (bookworm)")

CPU model: Intel(R) Xeon(R) Gold 5122 CPU @ 3.60GHz, instruction set [SSE2|AVX|AVX2|AVX512]
Thread count: 8 physical cores, 16 logical processors, using up to 1 threads

Non-default parameters:
TimeLimit  7198.766493
MIPGapAbs  0.999998
Threads  1

Optimize a model with 6225 rows, 3147 columns and 18300 nonzeros
Model fingerprint: 0xe9b22023
Variable types: 208 continuous, 2939 integer (2939 binary)
Coefficient statistics:
  Matrix range     [1e-06, 2e+00]
  Objective range  [1e+00, 1e+00]
  Bounds range     [3e-01, 1e+00]
  RHS range        [1e-06, 2e+00]
Found heuristic solution: objective 27.0000000
Presolve removed 1005 rows and 166 columns
Presolve time: 0.06s
Presolved: 5220 rows, 2981 columns, 17016 nonzeros
Variable types: 124 continuous, 2857 integer (2857 binary)

Root relaxation: objective 1.084088e+00, 1867 iterations, 0.04 seconds (0.08 work units)

    Nodes    |    Current Node    |     Objective Bounds      |     Work
 Expl Unexpl |  Obj  Depth IntInf | Incumbent    BestBd   Gap | It/Node Time

     0     0    1.08409    0  204   27.00000    1.08409  96.0%     -    0s
H    0     0                      13.0000000    1.08409  91.7%     -    0s
H    0     0                      12.0000000    1.08409  91.0%     -    0s
H    0     0                      11.0000000    1.08409  90.1%     -    0s
     0     0    1.72088    0  205   11.00000    1.72088  84.4%     -    0s
H    0     0                      10.0000000    1.72701  82.7%     -    0s
H    0     0                       9.0000000    1.72701  80.8%     -    0s
     0     0    1.96739    0  254    9.00000    1.96739  78.1%     -    0s
     0     0    1.96790    0  267    9.00000    1.96790  78.1%     -    0s
     0     0    2.40587    0  288    9.00000    2.40587  73.3%     -    0s
H    0     0                       8.0000000    2.41234  69.8%     -    0s
     0     0    2.41234    0  288    8.00000    2.41234  69.8%     -    0s
     0     0    2.87749    0  208    8.00000    2.87749  64.0%     -    0s
     0     0    2.91408    0  182    8.00000    2.91408  63.6%     -    1s
     0     0    2.93244    0  209    8.00000    2.93244  63.3%     -    1s
     0     0    2.93244    0  209    8.00000    2.93244  63.3%     -    1s
     0     0    3.07807    0  241    8.00000    3.07807  61.5%     -    1s
     0     0    3.12392    0  255    8.00000    3.12392  61.0%     -    1s
     0     0    3.12401    0  264    8.00000    3.12401  60.9%     -    1s
     0     0    3.14975    0  321    8.00000    3.14975  60.6%     -    1s
     0     0    3.16169    0  290    8.00000    3.16169  60.5%     -    1s
     0     0    3.16169    0  298    8.00000    3.16169  60.5%     -    1s
     0     0    3.17045    0  280    8.00000    3.17045  60.4%     -    1s
     0     0    3.17045    0  278    8.00000    3.17045  60.4%     -    1s
     0     0    3.17045    0  266    8.00000    3.17045  60.4%     -    1s
     0     0    3.17188    0  269    8.00000    3.17188  60.4%     -    1s
     0     0    3.17188    0  202    8.00000    3.17188  60.4%     -    1s
     0     0    3.17647    0  284    8.00000    3.17647  60.3%     -    1s
     0     0    3.17647    0  239    8.00000    3.17647  60.3%     -    1s
     0     0    3.17647    0  223    8.00000    3.17647  60.3%     -    2s
     0     2    3.17742    0  223    8.00000    3.17742  60.3%     -    2s
H   26    26                       7.0000000    3.40351  51.4%   187    2s
   264   215    6.00000   50   49    7.00000    3.50000  50.0%  88.8    5s
   615   458    4.81374   61  218    7.00000    3.53409  49.5%  74.9   10s
H  625   440                       6.0000000    3.53409  41.1%  73.7   13s
   631   444    3.90762   11  252    6.00000    3.53409  41.1%  73.0   15s
   687   483    4.45514   37   92    6.00000    3.65152  39.1%   164   20s
   874   467    4.50824   18  144    6.00000    4.00000  33.3%   174   25s
  1012   477    5.00000   28  110    6.00000    4.08974  31.8%   190   30s
  1172   473    4.57172   27  132    6.00000    4.16868  30.5%   195   35s
  1377   433    4.86316   21  138    6.00000    4.24198  29.3%   187   40s
  1617   378    5.00000   30  115    6.00000    4.29412  28.4%   181   45s
  1811   339    4.72523   32  211    6.00000    4.34177  27.6%   179   50s
  2026   317    5.00000   39   66    6.00000    4.40000  26.7%   177   55s
  2291   327    5.00000   30  155    6.00000    4.50000  25.0%   174   60s
  2733   389    4.50000   21  198    6.00000    4.50000  25.0%   166   65s
  3012   404    4.81433   37  179    6.00000    4.58065  23.7%   165   70s
  3295   357    4.71777   35  218    6.00000    4.67558  22.1%   162   75s
  3736   260    5.00000   37   54    6.00000    5.00000  16.7%   155   80s
  4244   229    5.00000   47   20    6.00000    5.00000  16.7%   147   85s
  4680   159    5.00000   30   53    6.00000    5.00000  16.7%   145   90s
  4958   128     cutoff   31         6.00000    5.00000  16.7%   143   95s
  5545   106    5.00000   27  128    6.00000    5.00000  16.7%   138  100s

Cutting planes:
  Learned: 1
  Gomory: 6
  Cover: 65
  Implied bound: 21
  MIR: 27
  StrongCG: 5
  Flow cover: 38
  GUB cover: 75
  Zero half: 33
  RLT: 8
  Relax-and-lift: 5

Explored 5846 nodes (827908 simplex iterations) in 104.42 seconds (130.15 work units)
Thread count was 1 (of 16 available processors)

Solution count 10: 6 7 7 ... 13

Optimal solution found (tolerance 1.00e-04)
Best objective 6.000000000000e+00, best bound 6.000000000000e+00, gap 0.0000%

User-callback calls 38913, time in user-callback 0.05 sec

 sepatime0 0 0
6.0Stat(MathOptInterface.OPTIMAL, 6.0, 6.0, 0.0, 0.0, 1.233507, 104.41655421257019, 5846, Main.CFLG.LEFP, "", #undef)
